00:00.0 clingo version 5.5.1
00:00.0 Reading from tools/../encodings/CTW_nat_optimal.lp ...
00:14.817 Solving...
29:59.992 UNKNOWN
29:59.992 
29:59.992 TIME LIMIT   : 1
29:59.992 Models       : 0+
29:59.992 Calls        : 1
29:59.992 Time         : 1800.000s (Solving: 1785.17s 1st Model: 0.00s Unsat: 0.00s)
29:59.992 CPU Time     : 1799.975s
